commons/LK_FILES/TIC15-10-10-4.tsp
NAME: TIC15-10-10-4
TYPE: TSP
COMMENT: TSP
DIMENSION: 5
EDGE_WEIGHT_TYPE: EXPLICIT
EDGE_WEIGHT_FORMAT: FULL_MATRIX
EDGE_WEIGHT_SECTION
0 299 285 63 310 
299 0 208 75 307 
285 208 0 401 477 
63 75 401 0 74 
310 307 477 74 0 
EOF
