commons/LK_FILES/TIC15-10-10-4.tour
NAME : TIC15-10-10-4.937.tour
COMMENT : Length = 937
COMMENT : Found by LKH [Keld Helsgaun] Mon Oct 31 15:49:52 2016
TYPE : TOUR
DIMENSION : 5
TOUR_SECTION
1
3
2
5
4
-1
EOF
